0 0 0 0
0 1 2 0
0 2 0 0
0 3 0 0
0 4 0 6
0 5 0 6
0 6 0 2
0 7 0 5
0 8 0 5
0 9 0 8
0 10 0 2
0 11 0 5
0 12 0 12
0 13 0 10
0 14 1 18
0 15 1 7
0 16 0 10
0 17 0 11
0 18 0 15
0 19 0 15
0 20 0 19
0 21 1 13
0 22 2 18
0 23 0 8
0 24 0 16
0 25 0 15
0 26 0 25
0 27 1 15
0 28 0 28
0 29 0 27
0 30 0 20
0 31 0 32
